
Gurobi 9.5.2 (mac64[arm]) logging started Fri Apr 28 18:05:18 2023

Set parameter LogFile to value "Java/output/iterative_model_2_machine/scenario_seed_2_nJob_30_machineCount_2/mip_increment_1/log.txt"
Gurobi Optimizer version 9.5.2 build v9.5.2rc0 (mac64[arm])
Thread count: 8 physical cores, 8 logical processors, using up to 8 threads
Optimize a model with 1442 rows, 6960 columns and 76599 nonzeros
Model fingerprint: 0xdae8fbca
Variable types: 0 continuous, 6960 integer (6960 binary)
Coefficient statistics:
  Matrix range     [1e+00, 1e+02]
  Objective range  [2e+01, 2e+06]
  Bounds range     [1e+00, 1e+00]
  RHS range        [1e+00, 1e+00]
Found heuristic solution: objective 6951824.0000
Presolve removed 207 rows and 1169 columns
Presolve time: 0.09s
Presolved: 1235 rows, 5791 columns, 63641 nonzeros
Variable types: 0 continuous, 5791 integer (5791 binary)
Found heuristic solution: objective 6062480.0000

Root relaxation: objective 3.608147e+04, 1010 iterations, 0.03 seconds (0.05 work units)

    Nodes    |    Current Node    |     Objective Bounds      |     Work
 Expl Unexpl |  Obj  Depth IntInf | Incumbent    BestBd   Gap | It/Node Time

     0     0 36081.4677    0   82 6062480.00 36081.4677  99.4%     -    0s
H    0     0                    4155584.0000 36081.4677  99.1%     -    0s
H    0     0                    200800.00000 36081.4677  82.0%     -    0s
H    0     0                    198208.00000 36081.4677  81.8%     -    0s
H    0     0                    160688.00000 36081.4677  77.5%     -    0s
     0     0 36970.1024    0   87 160688.000 36970.1024  77.0%     -    0s
     0     0 36970.1024    0   69 160688.000 36970.1024  77.0%     -    0s
H    0     0                    73648.000000 36970.1024  49.8%     -    0s
H    0     0                    73152.000000 36970.1024  49.5%     -    0s
     0     0 37007.6153    0   97 73152.0000 37007.6153  49.4%     -    0s
     0     0 37993.2954    0   90 73152.0000 37993.2954  48.1%     -    0s
     0     0 37993.2954    0   96 73152.0000 37993.2954  48.1%     -    0s
     0     0 39230.4842    0  116 73152.0000 39230.4842  46.4%     -    0s
     0     0 39307.2072    0  109 73152.0000 39307.2072  46.3%     -    0s
     0     0 39307.2072    0  109 73152.0000 39307.2072  46.3%     -    0s
H    0     0                    54608.000000 39307.2072  28.0%     -    0s
H    0     0                    51008.000000 39307.2072  22.9%     -    0s
     0     0 40667.7891    0  117 51008.0000 40667.7891  20.3%     -    0s
     0     0 40667.7891    0   77 51008.0000 40667.7891  20.3%     -    0s
     0     0 40667.7891    0  114 51008.0000 40667.7891  20.3%     -    0s
     0     0 40951.2396    0  117 51008.0000 40951.2396  19.7%     -    0s
     0     0 41003.9003    0  121 51008.0000 41003.9003  19.6%     -    0s
     0     0 41689.5966    0  119 51008.0000 41689.5966  18.3%     -    0s
     0     0 41702.9245    0  127 51008.0000 41702.9245  18.2%     -    0s
     0     0 41704.3689    0  127 51008.0000 41704.3689  18.2%     -    0s
     0     0 44472.6087    0  100 51008.0000 44472.6087  12.8%     -    0s
     0     0 44631.1601    0   90 51008.0000 44631.1601  12.5%     -    0s
     0     0 44655.5504    0   95 51008.0000 44655.5504  12.5%     -    0s
     0     0 45476.4048    0  105 51008.0000 45476.4048  10.8%     -    0s
     0     0 45671.2754    0   94 51008.0000 45671.2754  10.5%     -    0s
     0     0 45688.3448    0   88 51008.0000 45688.3448  10.4%     -    0s
     0     0 45948.5129    0  113 51008.0000 45948.5129  9.92%     -    0s
     0     0 46034.0409    0  145 51008.0000 46034.0409  9.75%     -    0s
     0     0 46034.0409    0  148 51008.0000 46034.0409  9.75%     -    0s
H    0     0                    50480.000000 46034.0409  8.81%     -    0s
     0     0 46202.6669    0  135 50480.0000 46202.6669  8.47%     -    0s
     0     0 46202.6669    0  136 50480.0000 46202.6669  8.47%     -    0s
     0     0 46257.7813    0  124 50480.0000 46257.7813  8.36%     -    0s
     0     0 46257.7813    0  120 50480.0000 46257.7813  8.36%     -    0s
     0     0 46865.4396    0   83 50480.0000 46865.4396  7.16%     -    0s
     0     0 46865.4396    0  125 50480.0000 46865.4396  7.16%     -    0s
     0     0 46865.4396    0  125 50480.0000 46865.4396  7.16%     -    0s
     0     0 46865.4396    0  116 50480.0000 46865.4396  7.16%     -    0s
     0     0 46865.4396    0  120 50480.0000 46865.4396  7.16%     -    0s
     0     0 46865.4396    0  101 50480.0000 46865.4396  7.16%     -    0s
     0     0 46865.4396    0  125 50480.0000 46865.4396  7.16%     -    1s
     0     0 46865.4396    0  138 50480.0000 46865.4396  7.16%     -    1s
     0     0 46865.4396    0  138 50480.0000 46865.4396  7.16%     -    1s
     0     0 46865.4396    0   99 50480.0000 46865.4396  7.16%     -    1s
     0     0 46865.4396    0  120 50480.0000 46865.4396  7.16%     -    1s
     0     0 46880.3311    0  143 50480.0000 46880.3311  7.13%     -    1s
     0     0 46893.8475    0  133 50480.0000 46893.8475  7.10%     -    1s
     0     0 46896.5572    0  145 50480.0000 46896.5572  7.10%     -    1s
     0     0 47034.6901    0  141 50480.0000 47034.6901  6.83%     -    1s
     0     0 47055.6105    0  116 50480.0000 47055.6105  6.78%     -    1s
     0     0 47062.5398    0  137 50480.0000 47062.5398  6.77%     -    1s
     0     0 47062.8033    0  143 50480.0000 47062.8033  6.77%     -    1s
     0     0 47112.0000    0   58 50480.0000 47112.0000  6.67%     -    1s
     0     0 47126.1288    0  144 50480.0000 47126.1288  6.64%     -    1s
     0     0 47136.0000    0   58 50480.0000 47136.0000  6.62%     -    1s
     0     0 47136.0000    0   58 50480.0000 47136.0000  6.62%     -    1s
     0     0 47136.0000    0   61 50480.0000 47136.0000  6.62%     -    1s
     0     0 47661.7370    0  111 50480.0000 47661.7370  5.58%     -    1s
     0     0 48280.0000    0   83 50480.0000 48280.0000  4.36%     -    1s
     0     0 49704.0000    0   69 50480.0000 49704.0000  1.54%     -    1s
     0     0 49704.0000    0   69 50480.0000 49704.0000  1.54%     -    1s
     0     0 49714.8085    0   49 50480.0000 49714.8085  1.52%     -    1s
     0     0 49714.8085    0   81 50480.0000 49714.8085  1.52%     -    1s
     0     0 50480.0000    0   67 50480.0000 50480.0000  0.00%     -    1s

Cutting planes:
  Gomory: 2
  Cover: 1
  Clique: 5
  MIR: 8
  StrongCG: 1
  GUB cover: 11
  Zero half: 2

Explored 1 nodes (9589 simplex iterations) in 1.27 seconds (1.71 work units)
Thread count was 8 (of 8 available processors)

Solution count 10: 50480 51008 51008 ... 200800

Optimal solution found (tolerance 1.00e-04)
Best objective 5.048000000000e+04, best bound 5.048000000000e+04, gap 0.0000%

Gurobi 9.5.2 (mac64[arm]) logging started Fri Apr 28 18:05:19 2023

Set parameter LogFile to value "Java/output/iterative_model_2_machine/scenario_seed_2_nJob_30_machineCount_2/mip_increment_1/log.txt"
Gurobi Optimizer version 9.5.2 build v9.5.2rc0 (mac64[arm])
Thread count: 8 physical cores, 8 logical processors, using up to 8 threads
Optimize a model with 1438 rows, 4703 columns and 55053 nonzeros
Model fingerprint: 0x18e9a486
Variable types: 0 continuous, 4703 integer (4703 binary)
Coefficient statistics:
  Matrix range     [1e+00, 1e+02]
  Objective range  [1e+02, 2e+05]
  Bounds range     [1e+00, 1e+00]
  RHS range        [1e+00, 1e+00]
Found heuristic solution: objective 864552.00000
Presolve removed 548 rows and 939 columns
Presolve time: 0.07s
Presolved: 890 rows, 3764 columns, 44571 nonzeros
Variable types: 0 continuous, 3764 integer (3764 binary)
Found heuristic solution: objective 801096.00000

Root relaxation: objective 6.342103e+04, 1102 iterations, 0.02 seconds (0.04 work units)

    Nodes    |    Current Node    |     Objective Bounds      |     Work
 Expl Unexpl |  Obj  Depth IntInf | Incumbent    BestBd   Gap | It/Node Time

     0     0 63421.0318    0   52 801096.000 63421.0318  92.1%     -    0s
H    0     0                    488064.00000 63421.0318  87.0%     -    0s
H    0     0                    244840.00000 63421.0318  74.1%     -    0s
H    0     0                    241864.00000 63421.0318  73.8%     -    0s
H    0     0                    222612.00000 63421.0318  71.5%     -    0s
H    0     0                    212224.00000 64844.6460  69.4%     -    0s
     0     0 64844.6460    0   89 212224.000 64844.6460  69.4%     -    0s
H    0     0                    202032.00000 64844.6460  67.9%     -    0s
H    0     0                    194384.00000 64908.1838  66.6%     -    0s
     0     0 64908.1838    0   87 194384.000 64908.1838  66.6%     -    0s
H    0     0                    126280.00000 65386.2104  48.2%     -    0s
H    0     0                    76196.000000 65386.2104  14.2%     -    0s
     0     0 65386.2104    0  105 76196.0000 65386.2104  14.2%     -    0s
     0     0 65428.8611    0  114 76196.0000 65428.8611  14.1%     -    0s
     0     0 65428.9742    0  113 76196.0000 65428.9742  14.1%     -    0s
H    0     0                    72848.000000 66203.7646  9.12%     -    0s
H    0     0                    70404.000000 66203.7646  5.97%     -    0s
     0     0 66826.5973    0  109 70404.0000 66826.5973  5.08%     -    0s
     0     0 66826.5973    0   58 70404.0000 66826.5973  5.08%     -    0s
     0     0 67679.0514    0   80 70404.0000 67679.0514  3.87%     -    0s
H    0     0                    69800.000000 67679.0514  3.04%     -    0s
     0     0 68084.4137    0   98 69800.0000 68084.4137  2.46%     -    0s
     0     0 68084.9625    0  104 69800.0000 68084.9625  2.46%     -    0s
*    0     0               0    69740.000000 69740.0000  0.00%     -    0s

Cutting planes:
  Gomory: 5
  Cover: 3
  Clique: 18
  MIR: 21
  StrongCG: 9
  GUB cover: 26
  Zero half: 9
  RLT: 5

Explored 1 nodes (3992 simplex iterations) in 0.52 seconds (0.79 work units)
Thread count was 8 (of 8 available processors)

Solution count 10: 69740 69800 70404 ... 222612

Optimal solution found (tolerance 1.00e-04)
Best objective 6.974000000000e+04, best bound 6.974000000000e+04, gap 0.0000%

Gurobi 9.5.2 (mac64[arm]) logging started Fri Apr 28 18:05:20 2023

Set parameter LogFile to value "Java/output/iterative_model_2_machine/scenario_seed_2_nJob_30_machineCount_2/mip_increment_1/log.txt"
Gurobi Optimizer version 9.5.2 build v9.5.2rc0 (mac64[arm])
Thread count: 8 physical cores, 8 logical processors, using up to 8 threads
Optimize a model with 1450 rows, 3165 columns and 31141 nonzeros
Model fingerprint: 0x0ad35068
Variable types: 0 continuous, 3165 integer (3165 binary)
Coefficient statistics:
  Matrix range     [1e+00, 1e+02]
  Objective range  [6e+01, 3e+04]
  Bounds range     [1e+00, 1e+00]
  RHS range        [1e+00, 1e+00]
Presolve removed 1010 rows and 1491 columns
Presolve time: 0.03s
Presolved: 440 rows, 1674 columns, 15093 nonzeros
Variable types: 0 continuous, 1674 integer (1674 binary)

Root relaxation: infeasible, 445 iterations, 0.01 seconds (0.01 work units)

    Nodes    |    Current Node    |     Objective Bounds      |     Work
 Expl Unexpl |  Obj  Depth IntInf | Incumbent    BestBd   Gap | It/Node Time

     0     0 infeasible    0               - infeasible      -     -    0s

Explored 1 nodes (445 simplex iterations) in 0.04 seconds (0.08 work units)
Thread count was 8 (of 8 available processors)

Solution count 0

Model is infeasible
Best objective -, best bound -, gap -

Computing Irreducible Inconsistent Subsystem (IIS)...

           Constraints          |            Bounds           |  Runtime
      Min       Max     Guess   |   Min       Max     Guess   |
--------------------------------------------------------------------------
        0       608         -         0         0         -           0s
       21        21         -         0         0         -           0s

IIS computed: 21 constraints, 0 bounds
IIS runtime: 0.19 seconds (0.24 work units)

Gurobi 9.5.2 (mac64[arm]) logging started Fri Apr 28 18:05:20 2023

Set parameter LogFile to value "Java/output/iterative_model_2_machine/scenario_seed_2_nJob_30_machineCount_2/mip_increment_1/log.txt"
Gurobi Optimizer version 9.5.2 build v9.5.2rc0 (mac64[arm])
Thread count: 8 physical cores, 8 logical processors, using up to 8 threads
Optimize a model with 1558 rows, 3709 columns and 37551 nonzeros
Model fingerprint: 0x56d50a0b
Variable types: 0 continuous, 3709 integer (3709 binary)
Coefficient statistics:
  Matrix range     [1e+00, 1e+02]
  Objective range  [6e+01, 3e+04]
  Bounds range     [1e+00, 1e+00]
  RHS range        [1e+00, 1e+00]
Presolve removed 1021 rows and 1501 columns
Presolve time: 0.04s
Presolved: 537 rows, 2208 columns, 20817 nonzeros
Variable types: 0 continuous, 2208 integer (2208 binary)

Root relaxation: objective 4.690433e+04, 571 iterations, 0.01 seconds (0.01 work units)

    Nodes    |    Current Node    |     Objective Bounds      |     Work
 Expl Unexpl |  Obj  Depth IntInf | Incumbent    BestBd   Gap | It/Node Time

     0     0 46904.3342    0   56          - 46904.3342      -     -    0s
     0     0 47412.8168    0   99          - 47412.8168      -     -    0s
     0     0 47470.4264    0  109          - 47470.4264      -     -    0s
     0     0 47470.4264    0  108          - 47470.4264      -     -    0s
     0     0 47980.9686    0  116          - 47980.9686      -     -    0s
H    0     0                    86050.000000 47980.9686  44.2%     -    0s
H    0     0                    65000.000000 48007.8166  26.1%     -    0s
     0     0 48007.8166    0  122 65000.0000 48007.8166  26.1%     -    0s
H    0     0                    61381.000000 48013.8361  21.8%     -    0s
     0     0 48013.8361    0  130 61381.0000 48013.8361  21.8%     -    0s
     0     0 48013.8361    0  131 61381.0000 48013.8361  21.8%     -    0s
H    0     0                    60928.000000 48013.8361  21.2%     -    0s
H    0     0                    56922.000000 48013.8361  15.6%     -    0s
H    0     0                    53618.000000 49238.1824  8.17%     -    0s
     0     0 49238.1824    0  108 53618.0000 49238.1824  8.17%     -    0s
H    0     0                    52936.000000 49821.8232  5.88%     -    0s
     0     0 49821.8232    0  114 52936.0000 49821.8232  5.88%     -    0s
     0     0 49882.7831    0  118 52936.0000 49882.7831  5.77%     -    0s
     0     0 49896.8760    0  121 52936.0000 49896.8760  5.74%     -    0s
     0     0 49897.9500    0  120 52936.0000 49897.9500  5.74%     -    0s
     0     0 50452.8845    0  142 52936.0000 50452.8845  4.69%     -    0s
     0     0 50501.9870    0  148 52936.0000 50501.9870  4.60%     -    0s
     0     0 50505.3816    0  151 52936.0000 50505.3816  4.59%     -    0s
     0     0 50505.3816    0  153 52936.0000 50505.3816  4.59%     -    0s
     0     0 50673.9639    0  142 52936.0000 50673.9639  4.27%     -    0s
     0     0 50711.7594    0  146 52936.0000 50711.7594  4.20%     -    0s
     0     0 50804.0384    0  149 52936.0000 50804.0384  4.03%     -    0s
H    0     0                    51981.000000 50820.5429  2.23%     -    0s
     0     0 50820.5429    0  152 51981.0000 50820.5429  2.23%     -    0s
     0     0 50827.4987    0  151 51981.0000 50827.4987  2.22%     -    0s
     0     0 50829.2569    0  154 51981.0000 50829.2569  2.22%     -    0s
     0     0 50830.2981    0  160 51981.0000 50830.2981  2.21%     -    0s
     0     0 50962.4476    0  168 51981.0000 50962.4476  1.96%     -    0s
     0     0 50962.4476    0   59 51981.0000 50962.4476  1.96%     -    0s
     0     0 50962.4476    0  105 51981.0000 50962.4476  1.96%     -    0s
     0     0 50962.4476    0   59 51981.0000 50962.4476  1.96%     -    0s
     0     0 50962.4476    0   96 51981.0000 50962.4476  1.96%     -    0s
     0     0 50962.4476    0  105 51981.0000 50962.4476  1.96%     -    0s
     0     0 50962.4476    0  103 51981.0000 50962.4476  1.96%     -    0s
     0     0 50962.4476    0  108 51981.0000 50962.4476  1.96%     -    0s
     0     0 50962.4476    0  110 51981.0000 50962.4476  1.96%     -    0s
     0     0 50962.4476    0  122 51981.0000 50962.4476  1.96%     -    0s
     0     0 50962.4476    0  130 51981.0000 50962.4476  1.96%     -    0s
     0     0 50962.4476    0  132 51981.0000 50962.4476  1.96%     -    0s
     0     0 51044.8343    0  130 51981.0000 51044.8343  1.80%     -    0s
     0     0 51107.6420    0  114 51981.0000 51107.6420  1.68%     -    0s
     0     0 51107.6420    0  118 51981.0000 51107.6420  1.68%     -    0s
     0     0 51357.3462    0  121 51981.0000 51357.3462  1.20%     -    0s
     0     0 51396.8750    0   94 51981.0000 51396.8750  1.12%     -    0s
     0     0 51401.2857    0  103 51981.0000 51401.2857  1.12%     -    0s
     0     0 51401.2857    0  106 51981.0000 51401.2857  1.12%     -    0s
     0     0 51459.4213    0  132 51981.0000 51459.4213  1.00%     -    0s
     0     0 51465.4891    0  133 51981.0000 51465.4891  0.99%     -    0s
     0     0 51466.6636    0  135 51981.0000 51466.6636  0.99%     -    0s
     0     0 51474.3094    0  144 51981.0000 51474.3094  0.97%     -    0s
     0     0 51474.3094    0  137 51981.0000 51474.3094  0.97%     -    0s
     0     0 51483.9832    0   62 51981.0000 51483.9832  0.96%     -    0s
     0     0 51483.9832    0   92 51981.0000 51483.9832  0.96%     -    0s
     0     0 51483.9832    0  118 51981.0000 51483.9832  0.96%     -    0s
     0     0 51483.9832    0  121 51981.0000 51483.9832  0.96%     -    0s
     0     0 51483.9832    0  132 51981.0000 51483.9832  0.96%     -    0s
     0     0 51487.4126    0  122 51981.0000 51487.4126  0.95%     -    0s
     0     0 51487.9020    0  117 51981.0000 51487.9020  0.95%     -    0s
     0     0 51518.6111    0  116 51981.0000 51518.6111  0.89%     -    0s
     0     0 51520.0278    0  118 51981.0000 51520.0278  0.89%     -    0s
     0     0 51540.3462    0  124 51981.0000 51540.3462  0.85%     -    0s
     0     0 51540.3462    0  122 51981.0000 51540.3462  0.85%     -    0s
     0     0 51564.7714    0   64 51981.0000 51564.7714  0.80%     -    1s
     0     0 51564.7714    0   97 51981.0000 51564.7714  0.80%     -    1s
     0     0 51642.4545    0   74 51981.0000 51642.4545  0.65%     -    1s
     0     0 51707.5714    0   73 51981.0000 51707.5714  0.53%     -    1s
     0     0 51707.5714    0   73 51981.0000 51707.5714  0.53%     -    1s
     0     0 51843.0000    0   53 51981.0000 51843.0000  0.27%     -    1s
     0     0 51861.1966    0   57 51981.0000 51861.1966  0.23%     -    1s
     0     0 51861.1966    0   53 51981.0000 51861.1966  0.23%     -    1s
     0     0     cutoff    0      51981.0000 51981.0000  0.00%     -    1s

Cutting planes:
  Gomory: 2
  Cover: 2
  Clique: 11
  MIR: 20
  StrongCG: 3
  GUB cover: 35
  Zero half: 7
  RLT: 1

Explored 1 nodes (9656 simplex iterations) in 1.07 seconds (1.26 work units)
Thread count was 8 (of 8 available processors)

Solution count 10: 51981 51981 52936 ... 65000

Optimal solution found (tolerance 1.00e-04)
Best objective 5.198100000000e+04, best bound 5.198100000000e+04, gap 0.0000%

Gurobi 9.5.2 (mac64[arm]) logging started Fri Apr 28 18:05:21 2023

Set parameter LogFile to value "Java/output/iterative_model_2_machine/scenario_seed_2_nJob_30_machineCount_2/mip_increment_1/log.txt"
Gurobi Optimizer version 9.5.2 build v9.5.2rc0 (mac64[arm])
Thread count: 8 physical cores, 8 logical processors, using up to 8 threads
Optimize a model with 1654 rows, 23000 columns and 255333 nonzeros
Model fingerprint: 0xde05a8a9
Variable types: 0 continuous, 23000 integer (23000 binary)
Coefficient statistics:
  Matrix range     [1e+00, 1e+02]
  Objective range  [2e+00, 2e+06]
  Bounds range     [1e+00, 1e+00]
  RHS range        [1e+00, 1e+00]

Warning: Completing partial solution with 22908 unfixed non-continuous variables out of 23000
User MIP start produced solution with objective 156613 (0.02s)
Loaded user MIP start with objective 156613

Presolve removed 125 rows and 3754 columns
Presolve time: 0.27s
Presolved: 1529 rows, 19246 columns, 215219 nonzeros
Variable types: 0 continuous, 19246 integer (19244 binary)
Found heuristic solution: objective 156418.00000

Root relaxation: objective 1.236985e+05, 11860 iterations, 0.84 seconds (1.83 work units)

    Nodes    |    Current Node    |     Objective Bounds      |     Work
 Expl Unexpl |  Obj  Depth IntInf | Incumbent    BestBd   Gap | It/Node Time

     0     0 123698.535    0  275 156418.000 123698.535  20.9%     -    1s
     0     0 124052.944    0  369 156418.000 124052.944  20.7%     -    2s
     0     0 124226.665    0  374 156418.000 124226.665  20.6%     -    2s
     0     0 124226.665    0  374 156418.000 124226.665  20.6%     -    2s
     0     0 124868.114    0  407 156418.000 124868.114  20.2%     -    3s
     0     0 125310.114    0  431 156418.000 125310.114  19.9%     -    3s
     0     0 125316.709    0  434 156418.000 125316.709  19.9%     -    3s
     0     0 125316.914    0  431 156418.000 125316.914  19.9%     -    3s
     0     0 126249.073    0  435 156418.000 126249.073  19.3%     -    5s
     0     0 126249.073    0  270 156418.000 126249.073  19.3%     -    6s
     0     0 126249.073    0  405 156418.000 126249.073  19.3%     -    7s
     0     0 126529.180    0  405 156418.000 126529.180  19.1%     -    8s
     0     0 127036.036    0  439 156418.000 127036.036  18.8%     -    8s
     0     0 127036.036    0  441 156418.000 127036.036  18.8%     -    8s
     0     0 128024.573    0  426 156418.000 128024.573  18.2%     -    9s
     0     0 128289.343    0  466 156418.000 128289.343  18.0%     -    9s
     0     0 128297.124    0  505 156418.000 128297.124  18.0%     -    9s
     0     0 128299.780    0  485 156418.000 128299.780  18.0%     -    9s
     0     0 128299.780    0  482 156418.000 128299.780  18.0%     -    9s
     0     0 131466.938    0  548 156418.000 131466.938  16.0%     -   11s
H    0     0                    156202.00000 131466.938  15.8%     -   11s
     0     0 132364.200    0  565 156202.000 132364.200  15.3%     -   12s
     0     0 132438.928    0  566 156202.000 132438.928  15.2%     -   12s
     0     0 132502.616    0  577 156202.000 132502.616  15.2%     -   12s
     0     0 132520.916    0  563 156202.000 132520.916  15.2%     -   12s
     0     0 132520.928    0  562 156202.000 132520.928  15.2%     -   12s
     0     0 135155.086    0  578 156202.000 135155.086  13.5%     -   14s
     0     0 136182.600    0  555 156202.000 136182.600  12.8%     -   15s
     0     0 136287.160    0  575 156202.000 136287.160  12.7%     -   15s
     0     0 136302.264    0  582 156202.000 136302.264  12.7%     -   15s
     0     0 136312.827    0  566 156202.000 136312.827  12.7%     -   15s
     0     0 136312.852    0  570 156202.000 136312.852  12.7%     -   15s
     0     0 137655.949    0  554 156202.000 137655.949  11.9%     -   16s
H    0     0                    156201.00000 137655.949  11.9%     -   16s
     0     0 137846.359    0  553 156201.000 137846.359  11.8%     -   16s
     0     0 137870.259    0  580 156201.000 137870.259  11.7%     -   16s
     0     0 137881.238    0  574 156201.000 137881.238  11.7%     -   16s
     0     0 137883.131    0  594 156201.000 137883.131  11.7%     -   16s
     0     0 138719.782    0  571 156201.000 138719.782  11.2%     -   17s
H    0     0                    155946.00000 138719.782  11.0%     -   17s
     0     0 138841.403    0  551 155946.000 138841.403  11.0%     -   17s
     0     0 138871.400    0  576 155946.000 138871.400  10.9%     -   17s
     0     0 138895.398    0  600 155946.000 138895.398  10.9%     -   17s
     0     0 138897.953    0  598 155946.000 138897.953  10.9%     -   18s
     0     0 139279.688    0  478 155946.000 139279.688  10.7%     -   18s
H    0     0                    154433.00000 139279.688  9.81%     -   18s
     0     0 139326.781    0  495 154433.000 139326.781  9.78%     -   18s
     0     0 139327.881    0  499 154433.000 139327.881  9.78%     -   18s
     0     0 140026.921    0  598 154433.000 140026.921  9.33%     -   19s
     0     0 140059.456    0  611 154433.000 140059.456  9.31%     -   19s
     0     0 140085.865    0  658 154433.000 140085.865  9.29%     -   19s
     0     0 140089.777    0  660 154433.000 140089.777  9.29%     -   19s
     0     0 140201.541    0  657 154433.000 140201.541  9.22%     -   20s
H    0     0                    150967.00000 140201.541  7.13%     -   20s
     0     0 140227.822    0  676 150967.000 140227.822  7.11%     -   20s
     0     0 140232.234    0  688 150967.000 140232.234  7.11%     -   20s
     0     0 140314.339    0  666 150967.000 140314.339  7.06%     -   20s
     0     0 140314.339    0  641 150967.000 140314.339  7.06%     -   21s
     0     0 140343.238    0  258 150967.000 140343.238  7.04%     -   23s
     0     0 140343.238    0  450 150967.000 140343.238  7.04%     -   23s
     0     0 140343.238    0  467 150967.000 140343.238  7.04%     -   24s
     0     0 140343.238    0  552 150967.000 140343.238  7.04%     -   25s
     0     0 140343.238    0  532 150967.000 140343.238  7.04%     -   26s
     0     0 140403.979    0  566 150967.000 140403.979  7.00%     -   26s
     0     0 140424.507    0  541 150967.000 140424.507  6.98%     -   26s
     0     0 140436.575    0  487 150967.000 140436.575  6.98%     -   26s
     0     0 140437.144    0  497 150967.000 140437.144  6.97%     -   26s
H    0     0                    150283.00000 140437.144  6.55%     -   26s
     0     0 140556.701    0  606 150283.000 140556.701  6.47%     -   26s
     0     0 140573.055    0  598 150283.000 140573.055  6.46%     -   26s
     0     0 140578.963    0  588 150283.000 140578.963  6.46%     -   26s
     0     0 141118.103    0  627 150283.000 141118.103  6.10%     -   28s
H    0     0                    148008.00000 141118.103  4.66%     -   28s
     0     0 141477.291    0  582 148008.000 141477.291  4.41%     -   28s
     0     0 141623.032    0  545 148008.000 141623.032  4.31%     -   28s
     0     0 141641.782    0  567 148008.000 141641.782  4.30%     -   29s
     0     0 141653.995    0  598 148008.000 141653.995  4.29%     -   29s
     0     0 141792.106    0  625 148008.000 141792.106  4.20%     -   29s
     0     0 141922.682    0  657 148008.000 141922.682  4.11%     -   30s
     0     0 141945.074    0  656 148008.000 141945.074  4.10%     -   30s
     0     0 141945.165    0  654 148008.000 141945.165  4.10%     -   30s
     0     0 142203.528    0  681 148008.000 142203.528  3.92%     -   30s
     0     0 142262.171    0  686 148008.000 142262.171  3.88%     -   31s
     0     0 142283.849    0  662 148008.000 142283.849  3.87%     -   31s
     0     0 142291.891    0  670 148008.000 142291.891  3.86%     -   31s
     0     0 142320.167    0  674 148008.000 142320.167  3.84%     -   31s
     0     0 142320.167    0  656 148008.000 142320.167  3.84%     -   32s
     0     0 142332.423    0  276 148008.000 142332.423  3.83%     -   33s
     0     0 142332.423    0  422 148008.000 142332.423  3.83%     -   34s
H    0     0                    148003.00000 142332.423  3.83%     -   34s
     0     0 142332.423    0  509 148003.000 142332.423  3.83%     -   34s
     0     0 142332.423    0  495 148003.000 142332.423  3.83%     -   35s
     0     0 142332.423    0  560 148003.000 142332.423  3.83%     -   35s
     0     0 142332.423    0  570 148003.000 142332.423  3.83%     -   36s
     0     0 142332.423    0  619 148003.000 142332.423  3.83%     -   36s
     0     0 142332.423    0  641 148003.000 142332.423  3.83%     -   36s
     0     0 142332.423    0  644 148003.000 142332.423  3.83%     -   36s
     0     0 142332.423    0  635 148003.000 142332.423  3.83%     -   36s
     0     0 142332.423    0  655 148003.000 142332.423  3.83%     -   36s
     0     0 142830.071    0  620 148003.000 142830.071  3.50%     -   37s
H    0     0                    147993.00000 142830.071  3.49%     -   37s
     0     0 142837.738    0  640 147993.000 142837.738  3.48%     -   37s
     0     0 143055.502    0  662 147993.000 143055.502  3.34%     -   37s
H    0     0                    147988.00000 143055.502  3.33%     -   37s
     0     0 143120.325    0  668 147988.000 143120.325  3.29%     -   38s
     0     0 143126.871    0  675 147988.000 143126.871  3.28%     -   38s
     0     0 143148.700    0  677 147988.000 143148.700  3.27%     -   38s
     0     0 143148.700    0  677 147988.000 143148.700  3.27%     -   38s
H    0     0                    147984.00000 143151.585  3.27%     -   39s
H    0     2                    147740.00000 143151.585  3.11%     -   39s
     0     2 143151.585    0  677 147740.000 143151.585  3.11%     -   39s
     1     4 144154.604    1  580 147740.000 143151.585  3.11%  6782   40s
H   31     8                    147729.00000 145045.512  1.82%  4336   44s
H   32     8                    147728.00000 145045.512  1.82%  4258   44s
H   32     8                    147717.00000 145045.512  1.81%  4258   44s
    38    12 145495.514    7  601 147717.000 145388.015  1.58%  3966   45s
H   66    32                    147714.00000 145821.107  1.28%  3155   46s
H  123    62                    147712.00000 145821.107  1.28%  1987   48s
H  135    62                    147518.00000 145821.107  1.15%  1851   48s
   193    70     cutoff    8      147518.000 147009.132  0.34%  1436   50s
H  221    68                    147286.00000 147011.465  0.19%  1315   50s
H  281    79                    147270.00000 147059.318  0.14%  1082   51s
H  367    52                    147267.00000 147254.064  0.01%   864   51s

Cutting planes:
  Gomory: 5
  Cover: 30
  Clique: 85
  MIR: 189
  StrongCG: 96
  GUB cover: 169
  Zero half: 14
  RLT: 22
  Relax-and-lift: 1

Explored 414 nodes (542478 simplex iterations) in 51.71 seconds (122.06 work units)
Thread count was 8 (of 8 available processors)

Solution count 10: 147267 147270 147286 ... 147740

Optimal solution found (tolerance 1.00e-04)
Best objective 1.472670000000e+05, best bound 1.472540641957e+05, gap 0.0088%
